# ------------ Global defined in system -----------------
variable        TEMP            equal 330
variable        PRES            equal 1.000000
variable        Nfreq           equal 100
variable        EPSILON         equal 0.00552634935805711
variable        DFIELD          equal 0.1
variable        SEED            equal 1

# ----------------- Init Section -----------------
atom_style      full
boundary        p p p
units           real
bond_style      harmonic
angle_style     harmonic
pair_style      lj/cut/coul/long 10.0 10.0
kspace_style    pppm 1e-5

# ----------------- Atom Definition Section -----------------
read_data       "system.data"
restart         100000 system.restart

# ----------------- SPC/E water -----------------
# O H
mass            1 15.9994
mass            2 1.008

set             type 1 charge -0.8476
set             type 2 charge 0.4238

pair_coeff      1 1 0.1553 3.166
pair_coeff      2 2 0.0 0.0
pair_coeff      1 2 0.0 0.0
bond_coeff      1 450.0 1.0
angle_coeff     1 55.0 109.47

fix             spce all shake 0.0001 20 100 b 1 a 1

# ----------------- Normal setting -----------------
neighbor        2.0 bin
neigh_modify    delay 0 every 1 check no

velocity        all create ${TEMP} ${SEED}

# ----------------- Control printout -----------------
thermo          ${Nfreq}
thermo_style    custom step temp press ke pe etotal ecoul elong evdwl 

# ----------------- Trajectory dump -----------------
dump            traj all custom ${Nfreq} dump.lammpstrj id type element xu yu zu
dump_modify     traj sort id element O H

# set D-field
compute         mu all dipole
variable        EFIELD equal ${DFIELD}-c_mu[3]/${EPSILON}/vol

fix             fnvt all nvt temp ${TEMP} ${TEMP} $(100.0*dt)
fix             fef all efield 0.0 0.0 v_EFIELD

variable        mu_x equal c_mu[1]
variable        mu_y equal c_mu[2]
variable        mu_z equal c_mu[3]
fix             sys_info all print ${Nfreq} "${mu_x} ${mu_y} ${mu_z}" title "dipole_x[eA] dipole_y[eA] dipole_z[eA]" file dipole.out screen "no"

#------------------time steps ------------------
timestep        2
run             5000

#------------------write new data file ------------------
write_data after_system.data nocoeff 
