# --------------------- VARIABLES-------------------------
variable        NSTEPS          equal 50000
variable        THERMO_FREQ     equal 10
variable        DUMP_FREQ       equal 1
variable        RESTART_FREQ    equal 10000
variable        TEMP            equal 330

# ---------------------- INITIALIZAITION ------------------
units           metal
boundary        p p p
atom_style      atomic
atom_modify     map yes
newton          on

# --------------------- ATOM DEFINITION ------------------
box             tilt large
read_data       system.data
change_box      all triclinic

# O H Pt
mass            1 15.999
mass            2 1.008
mass            3 195.084

# --------------------- FORCE FIELDS ---------------------
pair_style      mace no_domain_decomposition
pair_coeff      * * ../../models/mace-mpa.pt O H Pt

# --------------------- PRINT SECTION ----------------------
variable        time equal step*dt
variable        temp equal temp
variable        pe equal pe
variable        ke equal ke
variable        float1 format time %10.4f
variable        float2 format temp %.7f
variable        float3 format pe   %.7f
variable        float4 format ke   %.7f
fix             sys_info all print 1 "${float1} ${float2} ${float3} ${float4}" title "time temp pe ke" file energy.log screen "no"

# --------------------- MD SETTINGS ----------------------
# set velocity
velocity        all create ${TEMP} ${SEED}
velocity        all scale ${TEMP}

neighbor        2.0 bin
neigh_modify    every 1

fix             fnvt all nvt temp ${TEMP} ${TEMP} $(100.0*dt)

# print info to screen/log file
thermo          ${THERMO_FREQ}
thermo_style    custom step pe ke etotal temp
thermo_modify   format float %15.7f

# save trajectory to file
dump            traj all custom ${DUMP_FREQ} dump.lammpstrj id type element xu yu zu 
dump_modify     traj element O H Pt sort id

# --------------------- RUN ------------------------------
timestep        0.0005

restart         ${RESTART_FREQ} poly.restart
run             ${NSTEPS}

