# --------------------- VARIABLES-------------------------
variable        NSTEPS          equal 1000
variable        THERMO_FREQ     equal 10
variable        DUMP_FREQ       equal 10
variable        RESTART_FREQ    equal 100
variable        TEMP            equal 330
variable        SEED            equal 1

# ---------------------- INITIALIZAITION ------------------
units           metal
boundary        p p p
atom_style      atomic

# --------------------- ATOM DEFINITION ------------------
read_data       system.data
mass            1 15.999
mass            2 1.0079

# --------------------- FORCE FIELDS ---------------------
pair_style      deepmd ../../models/dp.pb
pair_coeff      * *

# --------------------- PRINT SECTION ----------------------
variable        time equal step*dt
variable        temp equal temp
variable        pe equal pe
variable        ke equal ke
variable        float1 format time %10.4f
variable        float2 format temp %.7f
variable        float3 format pe   %.7f
variable        float4 format ke   %.7f
fix             sys_info all print 1 "${float1} ${float2} ${float3} ${float4}" title "time temp pe ke" file energy.log screen "no"

# --------------------- MD SETTINGS ----------------------
# set velocity
velocity        all create ${TEMP} ${SEED}
velocity        all scale ${TEMP}

neighbor        2.0 bin
neigh_modify    every 1

# set ensemble
fix             fnvt all nvt temp ${TEMP} ${TEMP} $(100.0*dt)

# print info to screen/log file
thermo          ${THERMO_FREQ}
thermo_style    custom step pe ke etotal temp
thermo_modify   format float %15.7f

# save trajectory to file
dump            traj1 all custom ${DUMP_FREQ} dump.lammpstrj id element x y z fx fy fz vx vy vz
dump_modify     traj1 element O H sort id format float %20.15g

dump            traj2 all xtc ${DUMP_FREQ} dump.xtc 
# precision is in 1e-4 nm & save unwrapped coordinates
dump_modify     traj2 precision 10000 unwrap yes

dump            traj3 all xyz ${DUMP_FREQ} dump.xyz 
dump_modify     traj3 element O H sort id format line "%s %20.15g %20.15g %20.15g"

timestep        0.0005

# --------------------- RUN ------------------------------
restart         ${RESTART_FREQ} poly.restart
run             ${NSTEPS}
